NAME: random-3-20313
TYPE: TSP
COMMENT: size=3 seed=20313
DIMENSION: 8
EDGE_WEIGHT_TYPE: EUC_2D
NODE_COORD_SECTION
+0 591 800
-0 591 800
+1 256 927
-1 387 331
+2 593 975
-2 590 795
+3 283 952
-3 936 366
PRECEDENCE_SECTION
+0 -0
+1 -1
+2 -2
+3 -3
EOF
